SAT
-1 -99 -22 50 -59 100 -92 60 -38 -3 -21 96 -49 -39 -46 -80 -94 -98 4 48 -71 -88 -51 66 17 16 -90 -75 -58 -15 -87 -81 43 -76 52 10 89 -45 91 37 -30 95 74 -8 24 27 -34 65 -18 -20 -72 93 77 -82 12 9 -23 56 32 69 -40 73 -14 86 68 -53 62 42 -85 -79 28 78 11 55 70 97 64 -13 36 -83 25 63 -5 -47 -26 33 -31 -54 -44 -67 6 -57 7 -41 -2 61 19 -84 -29 35 0
